wmc_benchmarks/WMCBenchSingleMea/ae_nativegates_ibm_qiskit_opt0_2.qasm.cnf
p cnf 95 366
c p weight -5 1 0
c p weight 5 -1 0
c p weight 9 6.12323399573676603586882014729198302312846062338790031898128063403419218957424163818359375E-17 0
c p weight -9 1 0
c p weight 10 1 0
c p weight -10 1 0
c p weight -7 1 0
c p weight 7 -1 0
c p weight -11 1 0
c p weight 11 -1 0
c p weight 15 1 0
c p weight -15 1 0
c p weight 16 0 0
c p weight -16 1 0
c p weight -13 1 0
c p weight 13 -1 0
c p weight 19 1 0
c p weight -19 1 0
c p weight 20 0 0
c p weight -20 1 0
c p weight -17 1 0
c p weight 17 -1 0
c p weight 23 6.12323399573676603586882014729198302312846062338790031898128063403419218957424163818359375E-17 0
c p weight -23 1 0
c p weight 24 1 0
c p weight -24 1 0
c p weight -21 1 0
c p weight 21 -1 0
c p weight 27 -0.600000000000000088817841970012523233890533447265625 0
c p weight -27 1 0
c p weight 28 -0.79999999999999993338661852249060757458209991455078125 0
c p weight -28 1 0
c p weight -25 1 0
c p weight 25 -1 0
c p weight 31 6.12323399573676603586882014729198302312846062338790031898128063403419218957424163818359375E-17 0
c p weight -31 1 0
c p weight 32 1 0
c p weight -32 1 0
c p weight -29 1 0
c p weight 29 -1 0
c p weight 35 -1 0
c p weight -35 1 0
c p weight 36 3.673940397442059375002259206809000622711899723162043418511757408850826323032379150390625E-16 0
c p weight -36 1 0
c p weight -33 1 0
c p weight 33 -1 0
c p weight 39 1 0
c p weight -39 1 0
c p weight 40 0 0
c p weight -40 1 0
c p weight -37 1 0
c p weight 37 -1 0
c p weight -41 1 0
c p weight 41 -1 0
c p weight 46 1 0
c p weight -46 1 0
c p weight 47 0 0
c p weight -47 1 0
c p weight -44 1 0
c p weight 44 -1 0
c p weight 50 6.12323399573676603586882014729198302312846062338790031898128063403419218957424163818359375E-17 0
c p weight -50 1 0
c p weight 51 1 0
c p weight -51 1 0
c p weight -48 1 0
c p weight 48 -1 0
c p weight 54 -0.5999999999999998667732370449812151491641998291015625 0
c p weight -54 1 0
c p weight 55 0.80000000000000015543122344752191565930843353271484375 0
c p weight -55 1 0
c p weight -52 1 0
c p weight 52 -1 0
c p weight 58 6.12323399573676603586882014729198302312846062338790031898128063403419218957424163818359375E-17 0
c p weight -58 1 0
c p weight 59 1 0
c p weight -59 1 0
c p weight -56 1 0
c p weight 56 -1 0
c p weight 62 -1 0
c p weight -62 1 0
c p weight 63 3.673940397442059375002259206809000622711899723162043418511757408850826323032379150390625E-16 0
c p weight -63 1 0
c p weight -60 1 0
c p weight 60 -1 0
c p weight -64 1 0
c p weight 64 -1 0
c p weight -67 1 0
c p weight 67 -1 0
c p weight 71 6.12323399573676603586882014729198302312846062338790031898128063403419218957424163818359375E-17 0
c p weight -71 1 0
c p weight 72 1 0
c p weight -72 1 0
c p weight -69 1 0
c p weight 69 -1 0
c p weight -73 1 0
c p weight 73 -1 0
c p weight 77 1 0
c p weight -77 1 0
c p weight 78 0 0
c p weight -78 1 0
c p weight -75 1 0
c p weight 75 -1 0
c p weight 81 6.12323399573676603586882014729198302312846062338790031898128063403419218957424163818359375E-17 0
c p weight -81 1 0
c p weight 82 1 0
c p weight -82 1 0
c p weight -79 1 0
c p weight 79 -1 0
c p weight 85 -0.600000000000000088817841970012523233890533447265625 0
c p weight -85 1 0
c p weight 86 -0.79999999999999993338661852249060757458209991455078125 0
c p weight -86 1 0
c p weight -83 1 0
c p weight 83 -1 0
c p weight 89 6.12323399573676603586882014729198302312846062338790031898128063403419218957424163818359375E-17 0
c p weight -89 1 0
c p weight 90 1 0
c p weight -90 1 0
c p weight -87 1 0
c p weight 87 -1 0
c p weight 93 -1 0
c p weight -93 1 0
c p weight 94 3.673940397442059375002259206809000622711899723162043418511757408850826323032379150390625E-16 0
c p weight -94 1 0
c p weight -91 1 0
c p weight 91 -1 0
c p weight 95 0.5 0
c p weight -95 1 0
95 0
-3 0
-1 0
-5 1 0
-5 2 0
5 -1 -2 0
6 1 -2 0
6 -1 2 0
-6 1 2 0
-6 -1 -2 0
-7 8 0
-7 6 0
-7 -1 0
7 -8 1 -6 0
8 -1 6 0
-8 1 6 0
-9 6 0
8 -9 -1 0
-8 -9 1 0
8 9 1 -6 0
-8 9 -1 -6 0
-10 6 0
8 -10 1 0
-8 -10 -1 0
8 10 -1 -6 0
-8 10 1 -6 0
-11 8 0
-11 6 0
11 -8 -6 0
12 8 -6 0
12 -8 6 0
-12 8 6 0
-12 -8 -6 0
-13 8 0
-13 12 0
-13 -14 0
13 14 -8 -12 0
14 8 -12 0
-14 8 12 0
-15 8 0
14 -15 -12 0
-14 -15 12 0
14 15 -8 12 0
-14 15 -8 -12 0
-16 8 0
14 -16 12 0
-14 -16 -12 0
14 16 -8 -12 0
-14 16 -8 12 0
-17 3 0
-17 4 0
-17 -18 0
17 18 -3 -4 0
18 3 -4 0
-18 3 4 0
-19 3 0
18 -19 -4 0
-18 -19 4 0
18 19 -3 4 0
-18 19 -3 -4 0
-20 3 0
18 -20 4 0
-18 -20 -4 0
18 20 -3 -4 0
-18 20 -3 4 0
-21 22 0
-21 18 0
-21 -3 0
21 -22 3 -18 0
22 -3 18 0
-22 3 18 0
-23 18 0
22 -23 -3 0
-22 -23 3 0
22 23 3 -18 0
-22 23 -3 -18 0
-24 18 0
22 -24 3 0
-22 -24 -3 0
22 24 -3 -18 0
-22 24 3 -18 0
-25 22 0
-25 18 0
-25 -26 0
25 26 -22 -18 0
26 22 -18 0
-26 22 18 0
-27 22 0
26 -27 -18 0
-26 -27 18 0
26 27 -22 18 0
-26 27 -22 -18 0
-28 22 0
26 -28 18 0
-26 -28 -18 0
26 28 -22 -18 0
-26 28 -22 18 0
-29 30 0
-29 26 0
-29 -22 0
29 -30 22 -26 0
30 -22 26 0
-30 22 26 0
-31 26 0
30 -31 -22 0
-30 -31 22 0
30 31 22 -26 0
-30 31 -22 -26 0
-32 26 0
30 -32 22 0
-30 -32 -22 0
30 32 -22 -26 0
-30 32 22 -26 0
-33 30 0
-33 26 0
-33 -34 0
33 34 -30 -26 0
34 30 -26 0
-34 30 26 0
-35 30 0
34 -35 -26 0
-34 -35 26 0
34 35 -30 26 0
-34 35 -30 -26 0
-36 30 0
34 -36 26 0
-34 -36 -26 0
34 36 -30 -26 0
-34 36 -30 26 0
-37 30 0
-37 34 0
-37 -38 0
37 38 -30 -34 0
38 30 -34 0
-38 30 34 0
-39 30 0
38 -39 -34 0
-38 -39 34 0
38 39 -30 34 0
-38 39 -30 -34 0
-40 30 0
38 -40 34 0
-38 -40 -34 0
38 40 -30 -34 0
-38 40 -30 34 0
-41 8 0
-41 38 0
-41 30 -14 0
-41 -30 14 0
41 -8 30 14 -38 0
41 -8 -30 -14 -38 0
43 8 -30 0
43 -8 30 0
-43 8 30 0
-43 -8 -30 0
42 14 -38 0
42 -14 38 0
-42 14 38 0
-42 -14 -38 0
-44 43 0
-44 38 0
-44 -45 0
44 45 -43 -38 0
45 43 -38 0
-45 43 38 0
-46 43 0
45 -46 -38 0
-45 -46 38 0
45 46 -43 38 0
-45 46 -43 -38 0
-47 43 0
45 -47 38 0
-45 -47 -38 0
45 47 -43 -38 0
-45 47 -43 38 0
-48 49 0
-48 45 0
-48 -43 0
48 -49 43 -45 0
49 -43 45 0
-49 43 45 0
-50 45 0
49 -50 -43 0
-49 -50 43 0
49 50 43 -45 0
-49 50 -43 -45 0
-51 45 0
49 -51 43 0
-49 -51 -43 0
49 51 -43 -45 0
-49 51 43 -45 0
-52 49 0
-52 45 0
-52 -53 0
52 53 -49 -45 0
53 49 -45 0
-53 49 45 0
-54 49 0
53 -54 -45 0
-53 -54 45 0
53 54 -49 45 0
-53 54 -49 -45 0
-55 49 0
53 -55 45 0
-53 -55 -45 0
53 55 -49 -45 0
-53 55 -49 45 0
-56 57 0
-56 53 0
-56 -49 0
56 -57 49 -53 0
57 -49 53 0
-57 49 53 0
-58 53 0
57 -58 -49 0
-57 -58 49 0
57 58 49 -53 0
-57 58 -49 -53 0
-59 53 0
57 -59 49 0
-57 -59 -49 0
57 59 -49 -53 0
-57 59 49 -53 0
-60 57 0
-60 53 0
-60 -61 0
60 61 -57 -53 0
61 57 -53 0
-61 57 53 0
-62 57 0
61 -62 -53 0
-61 -62 53 0
61 62 -57 53 0
-61 62 -57 -53 0
-63 57 0
61 -63 53 0
-61 -63 -53 0
61 63 -57 -53 0
-61 63 -57 53 0
-64 8 0
-64 61 0
-64 57 -42 0
-64 -57 42 0
64 -8 57 42 -61 0
64 -8 -57 -42 -61 0
66 8 -57 0
66 -8 57 0
-66 8 57 0
-66 -8 -57 0
65 42 -61 0
65 -42 61 0
-65 42 61 0
-65 -42 -61 0
-67 8 0
-67 65 0
67 -8 -65 0
68 8 -65 0
68 -8 65 0
-68 8 65 0
-68 -8 -65 0
-69 70 0
-69 68 0
-69 -8 0
69 -70 8 -68 0
70 -8 68 0
-70 8 68 0
-71 68 0
70 -71 -8 0
-70 -71 8 0
70 71 8 -68 0
-70 71 -8 -68 0
-72 68 0
70 -72 8 0
-70 -72 -8 0
70 72 -8 -68 0
-70 72 8 -68 0
-73 70 0
-73 68 0
73 -70 -68 0
74 70 -68 0
74 -70 68 0
-74 70 68 0
-74 -70 -68 0
-75 66 0
-75 61 0
-75 -76 0
75 76 -66 -61 0
76 66 -61 0
-76 66 61 0
-77 66 0
76 -77 -61 0
-76 -77 61 0
76 77 -66 61 0
-76 77 -66 -61 0
-78 66 0
76 -78 61 0
-76 -78 -61 0
76 78 -66 -61 0
-76 78 -66 61 0
-79 80 0
-79 76 0
-79 -66 0
79 -80 66 -76 0
80 -66 76 0
-80 66 76 0
-81 76 0
80 -81 -66 0
-80 -81 66 0
80 81 66 -76 0
-80 81 -66 -76 0
-82 76 0
80 -82 66 0
-80 -82 -66 0
80 82 -66 -76 0
-80 82 66 -76 0
-83 80 0
-83 76 0
-83 -84 0
83 84 -80 -76 0
84 80 -76 0
-84 80 76 0
-85 80 0
84 -85 -76 0
-84 -85 76 0
84 85 -80 76 0
-84 85 -80 -76 0
-86 80 0
84 -86 76 0
-84 -86 -76 0
84 86 -80 -76 0
-84 86 -80 76 0
-87 88 0
-87 84 0
-87 -80 0
87 -88 80 -84 0
88 -80 84 0
-88 80 84 0
-89 84 0
88 -89 -80 0
-88 -89 80 0
88 89 80 -84 0
-88 89 -80 -84 0
-90 84 0
88 -90 80 0
-88 -90 -80 0
88 90 -80 -84 0
-88 90 80 -84 0
-91 88 0
-91 84 0
-91 -92 0
91 92 -88 -84 0
92 88 -84 0
-92 88 84 0
-93 88 0
92 -93 -84 0
-92 -93 84 0
92 93 -88 84 0
-92 93 -88 -84 0
-94 88 0
92 -94 84 0
-92 -94 -84 0
92 94 -88 -84 0
-92 94 -88 84 0
-70 0
-88 0
-92 0
