wmc_benchmarks/MQTBench/ae_nativegates_ibm_qiskit_opt0_2.qasm
// Used Gate Set: ['id', 'rz', 'sx', 'x', 'cx', 'measure', 'barrier']
OPENQASM 2.0;
include "qelib1.inc";
qreg eval[1];
qreg q[1];
rz(pi/2) eval[0];
rx(0.5*pi) eval[0];
rz(pi/2) eval[0];
rz(0) eval[0];
rz(0) q[0];
rx(0.5*pi) q[0];
rz(4.068887871591405) q[0];
rx(0.5*pi) q[0];
rz(3*pi) q[0];
rz(0) q[0];
cx eval[0],q[0];
rz(0) q[0];
rx(0.5*pi) q[0];
rz(2.214297435588181) q[0];
rx(0.5*pi) q[0];
rz(3*pi) q[0];
cx eval[0],q[0];
rz(pi/2) eval[0];
rx(0.5*pi) eval[0];
rz(pi/2) eval[0];
rz(0) q[0];
rx(0.5*pi) q[0];
rz(4.068887871591405) q[0];
rx(0.5*pi) q[0];
rz(3*pi) q[0];
